p cnf 696 1774
e 1 2 3 4 5 6 7 8 9 10 11 12 13 14 15 16 17 18 19 20 21 22 23 24 25 26 27 28 29 30 31 32 33 34 35 36 37 38 39 40 41 42 43 44 45 46 47 48 49 50 51 52 53 54 55 56 57 58 59 60 61 62 63 64 65 66 67 68 69 70 71 72 73 74 75 76 77 78 79 80 81 82 83 84 85 86 87 88 89 90 91 92 93 94 95 96 97 98 99 100 101 102 103 104 105 106 107 108 109 110 111 112 113 114 115 116 117 118 119 120 121 122 123 124 125 126 0
a 127 128 129 130 0
e 131 132 133 134 135 136 137 138 139 140 141 142 143 144 145 146 147 148 149 150 151 152 153 154 155 156 157 158 159 160 161 162 163 164 165 166 167 168 169 170 171 172 173 174 175 176 177 178 179 180 181 182 183 184 185 186 187 188 189 190 191 192 193 194 195 196 197 198 199 200 201 202 203 204 205 206 207 208 209 210 211 212 213 214 215 216 217 218 219 220 221 222 223 224 225 226 227 228 229 230 231 232 233 234 235 236 237 238 239 240 241 242 243 244 245 246 247 248 249 250 251 252 253 254 255 256 257 258 259 260 261 262 263 264 265 266 267 268 269 270 271 272 273 274 275 276 277 278 279 280 281 282 283 284 285 286 287 288 289 290 291 292 293 294 295 296 297 298 299 300 301 302 303 304 305 306 0
a 307 308 309 310 0
e 311 312 313 314 315 316 317 318 319 320 321 322 323 324 325 326 327 328 329 330 331 332 333 334 335 336 337 338 339 340 341 342 343 344 345 346 347 348 349 350 351 352 353 354 355 356 357 358 359 360 361 362 363 364 365 366 367 368 369 370 371 372 373 374 375 376 377 378 379 380 381 382 383 384 385 386 387 388 389 390 391 392 393 394 395 396 397 398 399 400 401 402 403 404 405 406 407 408 409 410 411 412 413 414 415 416 417 418 419 420 421 422 423 424 425 426 427 428 429 430 431 432 433 434 435 436 437 438 439 440 441 442 443 444 445 446 447 448 449 450 451 452 453 454 455 456 457 458 459 460 461 462 463 464 465 466 467 468 469 470 471 472 473 474 475 476 477 478 479 480 481 482 483 484 485 486 0
a 487 488 489 490 0
e 491 492 493 494 495 496 497 498 499 500 501 502 503 504 505 506 507 508 509 510 511 512 513 514 515 516 517 518 519 520 521 522 523 524 525 526 527 528 529 530 531 532 533 534 535 536 537 538 539 540 541 542 543 544 545 546 547 548 549 550 551 552 553 554 555 556 557 558 559 560 561 562 563 564 565 566 567 568 569 570 571 572 573 574 575 576 577 578 579 580 581 582 583 584 585 586 587 588 589 590 591 592 593 594 595 596 597 598 599 600 601 602 603 604 605 606 607 608 609 610 611 612 613 614 615 616 617 618 619 620 621 622 623 624 625 626 627 628 629 630 631 632 633 634 635 636 637 638 639 640 641 642 643 644 645 646 647 648 649 650 651 652 653 654 655 656 657 658 659 660 661 662 663 664 665 666 667 668 669 670 671 672 673 674 675 676 677 678 679 680 681 682 683 684 685 686 687 688 689 690 691 692 693 694 695 696 0
-212 0
-115 0
-34 0
-566 0
-213 0
454 0
-3 0
-7 0
-24 0
-56 0
90 0
98 0
630 0
-477 0
-5 0
-14 0
-53 0
-207 0
-389 0
-656 0
92 0
363 0
-299 0
-479 0
-476 0
-100 0
-37 0
186 0
-480 0
-659 0
95 0
97 0
547 0
-552 0
551 0
-303 0
-657 0
-209 0
-113 0
629 0
362 0
-208 0
-217 0
-473 0
-385 0
-386 0
364 0
549 0
-482 0
-294 0
451 0
-664 0
452 0
367 0
-296 0
359 0
634 0
361 0
-17 0
631 0
-396 0
-391 0
-86 0
275 0
-653 0
-574 0
-655 0
-640 0
-9 0
-68 0
-83 0
273 0
87 0
-31 0
-36 0
-302 0
371 0
543 0
548 0
191 0
540 0
267 0
-124 0
637 0
-59 0
277 0
-569 0
-660 0
-65 0
-71 0
-393 0
-214 0
-21 0
456 0
185 0
187 0
-114 0
457 0
458 0
550 0
-120 0
-20 0
-26 0
188 0
-30 0
-117 0
274 0
453 0
455 0
182 0
365 0
-192 0
-2 0
99 0
-295 0
89 0
278 0
546 0
-654 0
545 0
-397 0
-32 0
-18 0
-11 0
268 0
190 0
-485 0
-77 0
93 0
-4 0
-74 0
-565 0
-13 0
360 0
-210 0
180 0
369 0
-122 0
666 0
-19 0
-33 0
-119 0
-571 0
269 0
450 0
636 0
-665 0
-121 0
-475 0
-696 0
-215 0
-298 0
-205 0
-663 0
-125 0
-62 0
-661 0
459 0
-392 0
-390 0
-280 0
-29 0
183 0
-118 0
91 0
449 0
-394 0
-27 0
-395 0
-570 0
-567 0
-372 0
539 0
-15 0
-658 0
628 0
181 0
-481 0
-573 0
-6 0
-25 0
-474 0
633 0
-388 0
-460 0
-12 0
-293 0
-297 0
-576 0
-211 0
88 0
272 0
448 0
189 0
-22 0
-28 0
279 0
544 0
-662 0
270 0
-304 0
635 0
96 0
639 0
271 0
632 0
-387 0
627 0
368 0
541 0
-16 0
638 0
-123 0
370 0
-575 0
-572 0
1 0
-23 0
-80 0
-301 0
-35 0
-216 0
366 0
-577 0
276 0
-484 0
179 0
-300 0
-116 0
-478 0
94 0
184 0
-483 0
-10 0
-206 0
542 0
-568 0
-305 0
447 0
-8 0
-126 38 0
-218 126 0
-306 218 0
-398 306 0
-486 398 0
-578 486 0
-52 144 0
-55 147 0
-58 150 0
-61 153 0
-64 156 0
-67 159 0
-70 162 0
-73 165 0
-76 168 0
-79 171 0
-82 174 0
-85 177 0
-144 232 0
-147 235 0
-150 238 0
-153 241 0
-156 244 0
-159 247 0
-162 250 0
-165 253 0
-168 256 0
-171 259 0
-174 262 0
-177 265 0
-232 324 0
-235 327 0
-238 330 0
-241 333 0
-244 336 0
-247 339 0
-250 342 0
-253 345 0
-256 348 0
-259 351 0
-262 354 0
-265 357 0
-324 412 0
-327 415 0
-330 418 0
-333 421 0
-336 424 0
-339 427 0
-342 430 0
-345 433 0
-348 436 0
-351 439 0
-354 442 0
-357 445 0
-412 504 0
-415 507 0
-418 510 0
-421 513 0
-424 516 0
-427 519 0
-430 522 0
-433 525 0
-436 528 0
-439 531 0
-442 534 0
-445 537 0
-504 592 0
-507 595 0
-510 598 0
-513 601 0
-516 604 0
-519 607 0
-522 610 0
-525 613 0
-528 616 0
-531 619 0
-534 622 0
-537 625 0
-145 233 0
-148 236 0
-151 239 0
-154 242 0
-157 245 0
-160 248 0
-163 251 0
-166 254 0
-169 257 0
-172 260 0
-175 263 0
-178 266 0
-233 325 0
-236 328 0
-239 331 0
-242 334 0
-245 337 0
-248 340 0
-251 343 0
-254 346 0
-257 349 0
-260 352 0
-263 355 0
-266 358 0
-325 413 0
-328 416 0
-331 419 0
-334 422 0
-337 425 0
-340 428 0
-343 431 0
-346 434 0
-349 437 0
-352 440 0
-355 443 0
-358 446 0
-413 505 0
-416 508 0
-419 511 0
-422 514 0
-425 517 0
-428 520 0
-431 523 0
-434 526 0
-437 529 0
-440 532 0
-443 535 0
-446 538 0
-505 593 0
-508 596 0
-511 599 0
-514 602 0
-517 605 0
-520 608 0
-523 611 0
-526 614 0
-529 617 0
-532 620 0
-535 623 0
-538 626 0
-144 -145 0
-147 -148 0
-150 -151 0
-153 -154 0
-156 -157 0
-159 -160 0
-162 -163 0
-165 -166 0
-168 -169 0
-171 -172 0
-174 -175 0
-177 -178 0
-232 -233 0
-235 -236 0
-238 -239 0
-241 -242 0
-244 -245 0
-247 -248 0
-250 -251 0
-253 -254 0
-256 -257 0
-259 -260 0
-262 -263 0
-265 -266 0
-324 -325 0
-327 -328 0
-330 -331 0
-333 -334 0
-336 -337 0
-339 -340 0
-342 -343 0
-345 -346 0
-348 -349 0
-351 -352 0
-354 -355 0
-357 -358 0
-412 -413 0
-415 -416 0
-418 -419 0
-421 -422 0
-424 -425 0
-427 -428 0
-430 -431 0
-433 -434 0
-436 -437 0
-439 -440 0
-442 -443 0
-445 -446 0
-504 -505 0
-507 -508 0
-510 -511 0
-513 -514 0
-516 -517 0
-519 -520 0
-522 -523 0
-525 -526 0
-528 -529 0
-531 -532 0
-534 -535 0
-537 -538 0
-592 -593 0
-595 -596 0
-598 -599 0
-601 -602 0
-604 -605 0
-607 -608 0
-610 -611 0
-613 -614 0
-616 -617 0
-619 -620 0
-622 -623 0
-625 -626 0
-51 52 0
51 -52 0
-54 55 0
54 -55 0
-57 58 0
57 -58 0
-60 61 0
60 -61 0
-63 64 0
63 -64 0
-66 67 0
66 -67 0
-69 70 0
69 -70 0
-72 73 0
72 -73 0
-75 76 0
75 -76 0
-78 79 0
78 -79 0
-81 82 0
81 -82 0
-84 85 0
84 -85 0
-143 144 145 0
143 -144 0
143 -145 0
-146 147 148 0
146 -147 0
146 -148 0
-149 150 151 0
149 -150 0
149 -151 0
-152 153 154 0
152 -153 0
152 -154 0
-155 156 157 0
155 -156 0
155 -157 0
-158 159 160 0
158 -159 0
158 -160 0
-161 162 163 0
161 -162 0
161 -163 0
-164 165 166 0
164 -165 0
164 -166 0
-167 168 169 0
167 -168 0
167 -169 0
-170 171 172 0
170 -171 0
170 -172 0
-173 174 175 0
173 -174 0
173 -175 0
-176 177 178 0
176 -177 0
176 -178 0
-231 232 233 0
231 -232 0
231 -233 0
-234 235 236 0
234 -235 0
234 -236 0
-237 238 239 0
237 -238 0
237 -239 0
-240 241 242 0
240 -241 0
240 -242 0
-243 244 245 0
243 -244 0
243 -245 0
-246 247 248 0
246 -247 0
246 -248 0
-249 250 251 0
249 -250 0
249 -251 0
-252 253 254 0
252 -253 0
252 -254 0
-255 256 257 0
255 -256 0
255 -257 0
-258 259 260 0
258 -259 0
258 -260 0
-261 262 263 0
261 -262 0
261 -263 0
-264 265 266 0
264 -265 0
264 -266 0
-323 324 325 0
323 -324 0
323 -325 0
-326 327 328 0
326 -327 0
326 -328 0
-329 330 331 0
329 -330 0
329 -331 0
-332 333 334 0
332 -333 0
332 -334 0
-335 336 337 0
335 -336 0
335 -337 0
-338 339 340 0
338 -339 0
338 -340 0
-341 342 343 0
341 -342 0
341 -343 0
-344 345 346 0
344 -345 0
344 -346 0
-347 348 349 0
347 -348 0
347 -349 0
-350 351 352 0
350 -351 0
350 -352 0
-353 354 355 0
353 -354 0
353 -355 0
-356 357 358 0
356 -357 0
356 -358 0
-411 412 413 0
411 -412 0
411 -413 0
-414 415 416 0
414 -415 0
414 -416 0
-417 418 419 0
417 -418 0
417 -419 0
-420 421 422 0
420 -421 0
420 -422 0
-423 424 425 0
423 -424 0
423 -425 0
-426 427 428 0
426 -427 0
426 -428 0
-429 430 431 0
429 -430 0
429 -431 0
-432 433 434 0
432 -433 0
432 -434 0
-435 436 437 0
435 -436 0
435 -437 0
-438 439 440 0
438 -439 0
438 -440 0
-441 442 443 0
441 -442 0
441 -443 0
-444 445 446 0
444 -445 0
444 -446 0
-503 504 505 0
503 -504 0
503 -505 0
-506 507 508 0
506 -507 0
506 -508 0
-509 510 511 0
509 -510 0
509 -511 0
-512 513 514 0
512 -513 0
512 -514 0
-515 516 517 0
515 -516 0
515 -517 0
-518 519 520 0
518 -519 0
518 -520 0
-521 522 523 0
521 -522 0
521 -523 0
-524 525 526 0
524 -525 0
524 -526 0
-527 528 529 0
527 -528 0
527 -529 0
-530 531 532 0
530 -531 0
530 -532 0
-533 534 535 0
533 -534 0
533 -535 0
-536 537 538 0
536 -537 0
536 -538 0
-591 592 593 0
591 -592 0
591 -593 0
-594 595 596 0
594 -595 0
594 -596 0
-597 598 599 0
597 -598 0
597 -599 0
-600 601 602 0
600 -601 0
600 -602 0
-603 604 605 0
603 -604 0
603 -605 0
-606 607 608 0
606 -607 0
606 -608 0
-609 610 611 0
609 -610 0
609 -611 0
-612 613 614 0
612 -613 0
612 -614 0
-615 616 617 0
615 -616 0
615 -617 0
-618 619 620 0
618 -619 0
618 -620 0
-621 622 623 0
621 -622 0
621 -623 0
-624 625 626 0
624 -625 0
624 -626 0
38 -52 0
38 -55 0
38 -58 0
38 -61 0
38 -64 0
38 -67 0
38 -70 0
38 -73 0
38 -76 0
38 -79 0
38 -82 0
38 -85 0
126 52 -144 0
126 55 -147 0
126 58 -150 0
126 61 -153 0
126 64 -156 0
126 67 -159 0
126 70 -162 0
126 73 -165 0
126 76 -168 0
126 79 -171 0
126 82 -174 0
126 85 -177 0
218 144 -232 0
218 147 -235 0
218 150 -238 0
218 153 -241 0
218 156 -244 0
218 159 -247 0
218 162 -250 0
218 165 -253 0
218 168 -256 0
218 171 -259 0
218 174 -262 0
218 177 -265 0
306 232 -324 0
306 235 -327 0
306 238 -330 0
306 241 -333 0
306 244 -336 0
306 247 -339 0
306 250 -342 0
306 253 -345 0
306 256 -348 0
306 259 -351 0
306 262 -354 0
306 265 -357 0
398 324 -412 0
398 327 -415 0
398 330 -418 0
398 333 -421 0
398 336 -424 0
398 339 -427 0
398 342 -430 0
398 345 -433 0
398 348 -436 0
398 351 -439 0
398 354 -442 0
398 357 -445 0
486 412 -504 0
486 415 -507 0
486 418 -510 0
486 421 -513 0
486 424 -516 0
486 427 -519 0
486 430 -522 0
486 433 -525 0
486 436 -528 0
486 439 -531 0
486 442 -534 0
486 445 -537 0
578 504 -592 0
578 507 -595 0
578 510 -598 0
578 513 -601 0
578 516 -604 0
578 519 -607 0
578 522 -610 0
578 525 -613 0
578 528 -616 0
578 531 -619 0
578 534 -622 0
578 537 -625 0
126 -145 0
126 -148 0
126 -151 0
126 -154 0
126 -157 0
126 -160 0
126 -163 0
126 -166 0
126 -169 0
126 -172 0
126 -175 0
126 -178 0
218 145 -233 0
218 148 -236 0
218 151 -239 0
218 154 -242 0
218 157 -245 0
218 160 -248 0
218 163 -251 0
218 166 -254 0
218 169 -257 0
218 172 -260 0
218 175 -263 0
218 178 -266 0
306 233 -325 0
306 236 -328 0
306 239 -331 0
306 242 -334 0
306 245 -337 0
306 248 -340 0
306 251 -343 0
306 254 -346 0
306 257 -349 0
306 260 -352 0
306 263 -355 0
306 266 -358 0
398 325 -413 0
398 328 -416 0
398 331 -419 0
398 334 -422 0
398 337 -425 0
398 340 -428 0
398 343 -431 0
398 346 -434 0
398 349 -437 0
398 352 -440 0
398 355 -443 0
398 358 -446 0
486 413 -505 0
486 416 -508 0
486 419 -511 0
486 422 -514 0
486 425 -517 0
486 428 -520 0
486 431 -523 0
486 434 -526 0
486 437 -529 0
486 440 -532 0
486 443 -535 0
486 446 -538 0
578 505 -593 0
578 508 -596 0
578 511 -599 0
578 514 -602 0
578 517 -605 0
578 520 -608 0
578 523 -611 0
578 526 -614 0
578 529 -617 0
578 532 -620 0
578 535 -623 0
578 538 -626 0
39 -52 0
40 -55 0
41 -58 0
42 -61 0
43 -64 0
44 -67 0
45 -70 0
46 -73 0
47 -76 0
48 -79 0
49 -82 0
50 -85 0
219 144 -232 0
145 -233 0
220 147 -235 0
148 -236 0
221 150 -238 0
151 -239 0
222 153 -241 0
154 -242 0
223 156 -244 0
157 -245 0
224 159 -247 0
160 -248 0
225 162 -250 0
163 -251 0
226 165 -253 0
166 -254 0
227 168 -256 0
169 -257 0
228 171 -259 0
172 -260 0
229 174 -262 0
175 -263 0
230 177 -265 0
178 -266 0
399 324 -412 0
325 -413 0
400 327 -415 0
328 -416 0
401 330 -418 0
331 -419 0
402 333 -421 0
334 -422 0
403 336 -424 0
337 -425 0
404 339 -427 0
340 -428 0
405 342 -430 0
343 -431 0
406 345 -433 0
346 -434 0
407 348 -436 0
349 -437 0
408 351 -439 0
352 -440 0
409 354 -442 0
355 -443 0
410 357 -445 0
358 -446 0
579 504 -592 0
505 -593 0
580 507 -595 0
508 -596 0
581 510 -598 0
511 -599 0
582 513 -601 0
514 -602 0
583 516 -604 0
517 -605 0
584 519 -607 0
520 -608 0
585 522 -610 0
523 -611 0
586 525 -613 0
526 -614 0
587 528 -616 0
529 -617 0
588 531 -619 0
532 -620 0
589 534 -622 0
535 -623 0
590 537 -625 0
538 -626 0
131 -145 0
52 -144 0
132 -148 0
55 -147 0
133 -151 0
58 -150 0
134 -154 0
61 -153 0
135 -157 0
64 -156 0
136 -160 0
67 -159 0
137 -163 0
70 -162 0
138 -166 0
73 -165 0
139 -169 0
76 -168 0
140 -172 0
79 -171 0
141 -175 0
82 -174 0
142 -178 0
85 -177 0
311 233 -325 0
232 -324 0
312 236 -328 0
235 -327 0
313 239 -331 0
238 -330 0
314 242 -334 0
241 -333 0
315 245 -337 0
244 -336 0
316 248 -340 0
247 -339 0
317 251 -343 0
250 -342 0
318 254 -346 0
253 -345 0
319 257 -349 0
256 -348 0
320 260 -352 0
259 -351 0
321 263 -355 0
262 -354 0
322 266 -358 0
265 -357 0
491 413 -505 0
412 -504 0
492 416 -508 0
415 -507 0
493 419 -511 0
418 -510 0
494 422 -514 0
421 -513 0
495 425 -517 0
424 -516 0
496 428 -520 0
427 -519 0
497 431 -523 0
430 -522 0
498 434 -526 0
433 -525 0
499 437 -529 0
436 -528 0
500 440 -532 0
439 -531 0
501 443 -535 0
442 -534 0
502 446 -538 0
445 -537 0
667 -592 -595 -598 -607 -610 0
-667 592 0
-667 595 0
-667 598 0
-667 607 0
-667 610 0
668 -592 -595 -598 -607 -616 -619 0
-668 592 0
-668 595 0
-668 598 0
-668 607 0
-668 616 0
-668 619 0
669 -592 -595 -598 -607 -616 -625 0
-669 592 0
-669 595 0
-669 598 0
-669 607 0
-669 616 0
-669 625 0
670 -592 -595 -604 -607 -610 0
-670 592 0
-670 595 0
-670 604 0
-670 607 0
-670 610 0
671 -592 -595 -604 -607 -616 -619 0
-671 592 0
-671 595 0
-671 604 0
-671 607 0
-671 616 0
-671 619 0
672 -592 -595 -604 -607 -616 -625 0
-672 592 0
-672 595 0
-672 604 0
-672 607 0
-672 616 0
-672 625 0
673 -592 -595 -604 -613 -616 -610 0
-673 592 0
-673 595 0
-673 604 0
-673 613 0
-673 616 0
-673 610 0
674 -592 -595 -604 -613 -616 -619 0
-674 592 0
-674 595 0
-674 604 0
-674 613 0
-674 616 0
-674 619 0
675 -592 -595 -604 -613 -616 -625 0
-675 592 0
-675 595 0
-675 604 0
-675 613 0
-675 616 0
-675 625 0
676 -601 -595 -598 -607 -610 0
-676 601 0
-676 595 0
-676 598 0
-676 607 0
-676 610 0
677 -601 -595 -598 -607 -616 -619 0
-677 601 0
-677 595 0
-677 598 0
-677 607 0
-677 616 0
-677 619 0
678 -601 -595 -598 -607 -616 -625 0
-678 601 0
-678 595 0
-678 598 0
-678 607 0
-678 616 0
-678 625 0
679 -601 -604 -607 -610 0
-679 601 0
-679 604 0
-679 607 0
-679 610 0
680 -601 -604 -607 -616 -619 0
-680 601 0
-680 604 0
-680 607 0
-680 616 0
-680 619 0
681 -601 -604 -607 -616 -625 0
-681 601 0
-681 604 0
-681 607 0
-681 616 0
-681 625 0
682 -601 -604 -613 -616 -610 0
-682 601 0
-682 604 0
-682 613 0
-682 616 0
-682 610 0
683 -601 -604 -613 -616 -619 0
-683 601 0
-683 604 0
-683 613 0
-683 616 0
-683 619 0
684 -601 -604 -613 -616 -625 0
-684 601 0
-684 604 0
-684 613 0
-684 616 0
-684 625 0
685 -604 -607 -610 0
-685 604 0
-685 607 0
-685 610 0
686 -604 -607 -616 -619 0
-686 604 0
-686 607 0
-686 616 0
-686 619 0
687 -604 -607 -616 -625 0
-687 604 0
-687 607 0
-687 616 0
-687 625 0
688 -613 -607 -610 0
-688 613 0
-688 607 0
-688 610 0
689 -613 -616 -610 0
-689 613 0
-689 616 0
-689 610 0
690 -613 -616 -619 0
-690 613 0
-690 616 0
-690 619 0
691 -613 -616 -625 0
-691 613 0
-691 616 0
-691 625 0
692 -622 -613 -607 -610 0
-692 622 0
-692 613 0
-692 607 0
-692 610 0
693 -622 -613 -616 -610 0
-693 622 0
-693 613 0
-693 616 0
-693 610 0
694 -622 -613 -616 -619 0
-694 622 0
-694 613 0
-694 616 0
-694 619 0
695 -622 -613 -616 -625 0
-695 622 0
-695 613 0
-695 616 0
-695 625 0
667 668 669 670 671 672 673 674 675 676 677 678 679 680 681 682 683 684 685 686 687 688 689 690 691 692 693 694 695 0
-39 101 0
39 -101 0
-40 102 0
-101 102 0
40 -102 101 0
-40 -101 0
-41 103 0
-102 103 0
41 -103 102 0
-41 -102 0
-42 104 0
-103 104 0
42 -104 103 0
-42 -103 0
-43 105 0
-104 105 0
43 -105 104 0
-43 -104 0
-44 106 0
-105 106 0
44 -106 105 0
-44 -105 0
-45 107 0
-106 107 0
45 -107 106 0
-45 -106 0
-46 108 0
-107 108 0
46 -108 107 0
-46 -107 0
-47 109 0
-108 109 0
47 -109 108 0
-47 -108 0
-48 110 0
-109 110 0
48 -110 109 0
-48 -109 0
-49 111 0
-110 111 0
49 -111 110 0
-49 -110 0
-50 112 0
-111 112 0
50 -112 111 0
-50 -111 0
-219 281 0
219 -281 0
-220 282 0
-281 282 0
220 -282 281 0
-220 -281 0
-221 283 0
-282 283 0
221 -283 282 0
-221 -282 0
-222 284 0
-283 284 0
222 -284 283 0
-222 -283 0
-223 285 0
-284 285 0
223 -285 284 0
-223 -284 0
-224 286 0
-285 286 0
224 -286 285 0
-224 -285 0
-225 287 0
-286 287 0
225 -287 286 0
-225 -286 0
-226 288 0
-287 288 0
226 -288 287 0
-226 -287 0
-227 289 0
-288 289 0
227 -289 288 0
-227 -288 0
-228 290 0
-289 290 0
228 -290 289 0
-228 -289 0
-229 291 0
-290 291 0
229 -291 290 0
-229 -290 0
-230 292 0
-291 292 0
230 -292 291 0
-230 -291 0
-399 461 0
399 -461 0
-400 462 0
-461 462 0
400 -462 461 0
-400 -461 0
-401 463 0
-462 463 0
401 -463 462 0
-401 -462 0
-402 464 0
-463 464 0
402 -464 463 0
-402 -463 0
-403 465 0
-464 465 0
403 -465 464 0
-403 -464 0
-404 466 0
-465 466 0
404 -466 465 0
-404 -465 0
-405 467 0
-466 467 0
405 -467 466 0
-405 -466 0
-406 468 0
-467 468 0
406 -468 467 0
-406 -467 0
-407 469 0
-468 469 0
407 -469 468 0
-407 -468 0
-408 470 0
-469 470 0
408 -470 469 0
-408 -469 0
-409 471 0
-470 471 0
409 -471 470 0
-409 -470 0
-410 472 0
-471 472 0
410 -472 471 0
-410 -471 0
-579 641 0
579 -641 0
-580 642 0
-641 642 0
580 -642 641 0
-580 -641 0
-581 643 0
-642 643 0
581 -643 642 0
-581 -642 0
-582 644 0
-643 644 0
582 -644 643 0
-582 -643 0
-583 645 0
-644 645 0
583 -645 644 0
-583 -644 0
-584 646 0
-645 646 0
584 -646 645 0
-584 -645 0
-585 647 0
-646 647 0
585 -647 646 0
-585 -646 0
-586 648 0
-647 648 0
586 -648 647 0
-586 -647 0
-587 649 0
-648 649 0
587 -649 648 0
-587 -648 0
-588 650 0
-649 650 0
588 -650 649 0
-588 -649 0
-589 651 0
-650 651 0
589 -651 650 0
-589 -650 0
-590 652 0
-651 652 0
590 -652 651 0
-590 -651 0
-131 193 0
131 -193 0
-132 194 0
-193 194 0
132 -194 193 0
-132 -193 0
-133 195 0
-194 195 0
133 -195 194 0
-133 -194 0
-134 196 0
-195 196 0
134 -196 195 0
-134 -195 0
-135 197 0
-196 197 0
135 -197 196 0
-135 -196 0
-136 198 0
-197 198 0
136 -198 197 0
-136 -197 0
-137 199 0
-198 199 0
137 -199 198 0
-137 -198 0
-138 200 0
-199 200 0
138 -200 199 0
-138 -199 0
-139 201 0
-200 201 0
139 -201 200 0
-139 -200 0
-140 202 0
-201 202 0
140 -202 201 0
-140 -201 0
-141 203 0
-202 203 0
141 -203 202 0
-141 -202 0
-142 204 0
-203 204 0
142 -204 203 0
-142 -203 0
-311 373 0
311 -373 0
-312 374 0
-373 374 0
312 -374 373 0
-312 -373 0
-313 375 0
-374 375 0
313 -375 374 0
-313 -374 0
-314 376 0
-375 376 0
314 -376 375 0
-314 -375 0
-315 377 0
-376 377 0
315 -377 376 0
-315 -376 0
-316 378 0
-377 378 0
316 -378 377 0
-316 -377 0
-317 379 0
-378 379 0
317 -379 378 0
-317 -378 0
-318 380 0
-379 380 0
318 -380 379 0
-318 -379 0
-319 381 0
-380 381 0
319 -381 380 0
-319 -380 0
-320 382 0
-381 382 0
320 -382 381 0
-320 -381 0
-321 383 0
-382 383 0
321 -383 382 0
-321 -382 0
-322 384 0
-383 384 0
322 -384 383 0
-322 -383 0
-491 553 0
491 -553 0
-492 554 0
-553 554 0
492 -554 553 0
-492 -553 0
-493 555 0
-554 555 0
493 -555 554 0
-493 -554 0
-494 556 0
-555 556 0
494 -556 555 0
-494 -555 0
-495 557 0
-556 557 0
495 -557 556 0
-495 -556 0
-496 558 0
-557 558 0
496 -558 557 0
-496 -557 0
-497 559 0
-558 559 0
497 -559 558 0
-497 -558 0
-498 560 0
-559 560 0
498 -560 559 0
-498 -559 0
-499 561 0
-560 561 0
499 -561 560 0
-499 -560 0
-500 562 0
-561 562 0
500 -562 561 0
-500 -561 0
-501 563 0
-562 563 0
501 -563 562 0
-501 -562 0
-502 564 0
-563 564 0
502 -564 563 0
-502 -563 0
-38 112 0
-218 292 0
-398 472 0
-578 652 0
-126 204 0
-306 384 0
-486 564 0
-39 52 0
-39 38 0
-40 55 0
-40 38 0
-41 58 0
-41 38 0
-42 61 0
-42 38 0
-43 64 0
-43 38 0
-44 67 0
-44 38 0
-45 70 0
-45 38 0
-46 73 0
-46 38 0
-47 76 0
-47 38 0
-48 79 0
-48 38 0
-49 82 0
-49 38 0
-50 85 0
-50 38 0
-219 232 0
-219 -143 0
-219 218 0
-220 235 0
-220 -146 0
-220 218 0
-221 238 0
-221 -149 0
-221 218 0
-222 241 0
-222 -152 0
-222 218 0
-223 244 0
-223 -155 0
-223 218 0
-224 247 0
-224 -158 0
-224 218 0
-225 250 0
-225 -161 0
-225 218 0
-226 253 0
-226 -164 0
-226 218 0
-227 256 0
-227 -167 0
-227 218 0
-228 259 0
-228 -170 0
-228 218 0
-229 262 0
-229 -173 0
-229 218 0
-230 265 0
-230 -176 0
-230 218 0
-399 412 0
-399 -323 0
-399 398 0
-400 415 0
-400 -326 0
-400 398 0
-401 418 0
-401 -329 0
-401 398 0
-402 421 0
-402 -332 0
-402 398 0
-403 424 0
-403 -335 0
-403 398 0
-404 427 0
-404 -338 0
-404 398 0
-405 430 0
-405 -341 0
-405 398 0
-406 433 0
-406 -344 0
-406 398 0
-407 436 0
-407 -347 0
-407 398 0
-408 439 0
-408 -350 0
-408 398 0
-409 442 0
-409 -353 0
-409 398 0
-410 445 0
-410 -356 0
-410 398 0
-579 592 0
-579 -503 0
-579 578 0
-580 595 0
-580 -506 0
-580 578 0
-581 598 0
-581 -509 0
-581 578 0
-582 601 0
-582 -512 0
-582 578 0
-583 604 0
-583 -515 0
-583 578 0
-584 607 0
-584 -518 0
-584 578 0
-585 610 0
-585 -521 0
-585 578 0
-586 613 0
-586 -524 0
-586 578 0
-587 616 0
-587 -527 0
-587 578 0
-588 619 0
-588 -530 0
-588 578 0
-589 622 0
-589 -533 0
-589 578 0
-590 625 0
-590 -536 0
-590 578 0
-131 145 0
-131 -51 0
-131 126 0
-132 148 0
-132 -54 0
-132 126 0
-133 151 0
-133 -57 0
-133 126 0
-134 154 0
-134 -60 0
-134 126 0
-135 157 0
-135 -63 0
-135 126 0
-136 160 0
-136 -66 0
-136 126 0
-137 163 0
-137 -69 0
-137 126 0
-138 166 0
-138 -72 0
-138 126 0
-139 169 0
-139 -75 0
-139 126 0
-140 172 0
-140 -78 0
-140 126 0
-141 175 0
-141 -81 0
-141 126 0
-142 178 0
-142 -84 0
-142 126 0
-311 325 0
-311 -231 0
-311 306 0
-312 328 0
-312 -234 0
-312 306 0
-313 331 0
-313 -237 0
-313 306 0
-314 334 0
-314 -240 0
-314 306 0
-315 337 0
-315 -243 0
-315 306 0
-316 340 0
-316 -246 0
-316 306 0
-317 343 0
-317 -249 0
-317 306 0
-318 346 0
-318 -252 0
-318 306 0
-319 349 0
-319 -255 0
-319 306 0
-320 352 0
-320 -258 0
-320 306 0
-321 355 0
-321 -261 0
-321 306 0
-322 358 0
-322 -264 0
-322 306 0
-491 505 0
-491 -411 0
-491 486 0
-492 508 0
-492 -414 0
-492 486 0
-493 511 0
-493 -417 0
-493 486 0
-494 514 0
-494 -420 0
-494 486 0
-495 517 0
-495 -423 0
-495 486 0
-496 520 0
-496 -426 0
-496 486 0
-497 523 0
-497 -429 0
-497 486 0
-498 526 0
-498 -432 0
-498 486 0
-499 529 0
-499 -435 0
-499 486 0
-500 532 0
-500 -438 0
-500 486 0
-501 535 0
-501 -441 0
-501 486 0
-502 538 0
-502 -444 0
-502 486 0
-126 51 -127 -128 -129 -130 131 0
-126 54 127 -128 -129 -130 132 0
-126 57 -127 128 -129 -130 133 0
-126 60 127 128 -129 -130 134 0
-126 63 -127 -128 129 -130 135 0
-126 66 127 -128 129 -130 136 0
-126 69 -127 128 129 -130 137 0
-126 72 127 128 129 -130 138 0
-126 75 -127 -128 -129 130 139 0
-126 78 127 -128 -129 130 140 0
-126 81 -127 128 -129 130 141 0
-126 84 127 128 -129 130 142 0
-306 231 -307 -308 -309 -310 311 0
-306 234 307 -308 -309 -310 312 0
-306 237 -307 308 -309 -310 313 0
-306 240 307 308 -309 -310 314 0
-306 243 -307 -308 309 -310 315 0
-306 246 307 -308 309 -310 316 0
-306 249 -307 308 309 -310 317 0
-306 252 307 308 309 -310 318 0
-306 255 -307 -308 -309 310 319 0
-306 258 307 -308 -309 310 320 0
-306 261 -307 308 -309 310 321 0
-306 264 307 308 -309 310 322 0
-486 411 -487 -488 -489 -490 491 0
-486 414 487 -488 -489 -490 492 0
-486 417 -487 488 -489 -490 493 0
-486 420 487 488 -489 -490 494 0
-486 423 -487 -488 489 -490 495 0
-486 426 487 -488 489 -490 496 0
-486 429 -487 488 489 -490 497 0
-486 432 487 488 489 -490 498 0
-486 435 -487 -488 -489 490 499 0
-486 438 487 -488 -489 490 500 0
-486 441 -487 488 -489 490 501 0
-486 444 487 488 -489 490 502 0
